
Log started (V20.1.0.0) Tue Aug  9 00:24:00 2022


Problem 'pp.lp' read.
Read time = 0.00 sec. (0.00 ticks)
Version identifier: 20.1.0.0 | 2020-11-10 | 9bedb6d68
Tried aggregator 1 time.
LP Presolve eliminated 0 rows and 1 columns.
Reduced LP has 3 rows, 2 columns, and 6 nonzeros.
Presolve time = 0.00 sec. (0.00 ticks)

Iteration log . . .
Iteration:     1   Dual objective     =            12.000000

Dual simplex - Optimal:  Objective =  2.4000000000e+01
Solution time =    0.00 sec.  Iterations = 3 (0)
Deterministic time = 0.01 ticks  (6.24 ticks/sec)


Variable Name           Solution Value
x1                            2.000000
x2                            1.000000
All other variables matching '*' are 0.
